123 300 178 136 104 200 132 163 158 128 126 177 103 197 105 131 159 157 174 175 195 175 170 108 175 137 169 111 107 131 125 178 186 103 180 190 169 179 118 126 106 110 169 109 107 141 106 132 164 146 173 125 121 108 133 196 145 168 173 119 165 199 197 151 168 142 106 136 120 125 129 194 101 198 102 175 104 176 106 169 121 146 194 108 154 193 171 200 160 143 118 125 107 181 142 141 189 148 144 109 139 173 102 141 136 171 115 141 112 189 109 100 134 102 108 188 195 179 187 120 189 171 111 162 117 